c ind 10 13 15 24 27 30 35 38 47 5 0
c ind 57 59 6 61 63 65 67 69 71 9 0
p cnf 116 365
-1 -2 11 0
-1 2 116 0
-100 -101 -102 0
-100 101 102 0
-101 -65 -30 0
-101 65 30 0
-102 63 0
-102 98 0
-103 -104 30 0
-103 -30 104 0
-104 -105 -106 0
-104 105 106 0
-105 -67 -30 0
-105 67 30 0
-106 102 0
-106 65 0
-107 -108 30 0
-107 -30 108 0
-108 -109 -110 0
-108 109 110 0
-109 -69 -30 0
-109 69 30 0
-11 -12 14 0
-11 12 16 0
-110 106 0
-110 67 0
-111 -112 30 0
-111 -30 112 0
-112 -113 -114 0
-112 113 114 0
-113 -71 -30 0
-113 71 30 0
-114 110 0
-114 69 0
-115 -15 30 0
-115 -30 15 0
-116 -15 38 0
-116 -38 15 0
-12 -13 9 0
-12 -9 13 0
-14 -13 15 0
-14 -15 13 0
-16 -17 19 0
-16 17 116 0
-17 18 0
-17 3 0
-18 -13 5 0
-18 -5 13 0
-19 -20 36 0
-19 20 116 0
-2 3 7 0
-20 -21 28 0
-20 21 34 0
-21 22 25 0
-22 -23 0
-23 -24 6 0
-23 -6 24 0
-25 -26 0
-26 -10 27 0
-26 -27 10 0
-28 -29 30 0
-28 29 31 0
-29 -10 13 0
-29 -13 10 0
-3 -4 0
-30 0
-31 -32 30 0
-31 32 34 0
-32 22 0
-32 33 0
-33 -13 6 0
-33 -6 13 0
-34 -13 35 0
-34 -35 13 0
-36 -37 14 0
-36 37 39 0
-37 -30 38 0
-37 -38 30 0
-39 -40 41 0
-39 40 116 0
-4 -5 6 0
-4 -6 5 0
-40 -13 38 0
-40 -38 13 0
-41 -42 14 0
-41 42 115 0
-42 -21 43 0
-42 21 72 0
-43 -29 30 0
-43 29 44 0
-44 -32 45 0
-44 32 72 0
-45 -46 48 0
-45 46 72 0
-46 -13 47 0
-46 -47 13 0
-48 -49 72 0
-48 49 77 0
-49 50 0
-49 70 0
-50 51 0
-50 68 0
-51 52 0
-51 66 0
-52 53 0
-52 64 0
-53 54 0
-53 62 0
-54 55 0
-54 60 0
-55 56 0
-55 58 0
-56 -30 57 0
-56 -57 30 0
-58 -30 59 0
-58 -59 30 0
-60 -30 61 0
-60 -61 30 0
-62 -30 63 0
-62 -63 30 0
-64 -30 65 0
-64 -65 30 0
-66 -30 67 0
-66 -67 30 0
-68 -30 69 0
-68 -69 30 0
-7 -8 0
-70 -30 71 0
-70 -71 30 0
-72 70 0
-72 73 0
-73 68 0
-73 74 0
-74 66 0
-74 75 0
-75 53 0
-75 76 0
-76 -13 65 0
-76 -65 13 0
-77 111 0
-77 78 0
-78 107 0
-78 79 0
-79 103 0
-79 80 0
-8 -10 9 0
-8 -9 10 0
-80 81 0
-80 99 0
-81 82 0
-81 95 0
-82 83 0
-82 91 0
-83 84 0
-83 87 0
-84 -30 85 0
-84 -85 30 0
-85 -86 -30 0
-85 86 30 0
-86 -57 -13 0
-86 57 13 0
-87 -30 88 0
-87 -88 30 0
-88 -89 -90 0
-88 89 90 0
-89 -59 -30 0
-89 59 30 0
-90 57 30 0
-91 -30 92 0
-91 -92 30 0
-92 -93 -94 0
-92 93 94 0
-93 -61 -30 0
-93 61 30 0
-94 59 0
-94 90 0
-95 -30 96 0
-95 -96 30 0
-96 -97 -98 0
-96 97 98 0
-97 -63 -30 0
-97 63 30 0
-98 61 0
-98 94 0
-99 -100 13 0
-99 -13 100 0
1 -11 -116 0
1 -2 -11 0
1 0
1 2 -116 0
100 -101 102 0
100 -102 101 0
101 -30 65 0
101 -65 30 0
102 -63 -98 0
103 -104 -30 0
103 104 30 0
104 -105 106 0
104 -106 105 0
105 -30 67 0
105 -67 30 0
106 -65 -102 0
107 -108 -30 0
107 108 30 0
108 -109 110 0
108 -110 109 0
109 -30 69 0
109 -69 30 0
11 -12 -14 0
11 -14 -16 0
11 12 -16 0
110 -67 -106 0
111 -112 -30 0
111 112 30 0
112 -113 114 0
112 -114 113 0
113 -30 71 0
113 -71 30 0
114 -69 -110 0
115 -15 -30 0
115 15 30 0
116 -15 -38 0
116 15 38 0
12 -9 -13 0
12 9 13 0
13 0
14 -15 -13 0
14 15 13 0
16 -17 -19 0
16 -19 -116 0
16 17 -116 0
17 -3 -18 0
18 -5 -13 0
18 5 13 0
19 -20 -36 0
19 -36 -116 0
19 20 -116 0
2 -3 0
2 -7 0
20 -21 -28 0
20 -28 -34 0
20 21 -34 0
21 -22 0
21 -25 0
22 23 0
23 -6 -24 0
23 6 24 0
25 26 0
26 -10 -27 0
26 10 27 0
28 -29 -30 0
28 -30 -31 0
28 29 -31 0
29 -10 -13 0
29 10 13 0
3 4 0
31 -30 -34 0
31 -32 -30 0
31 32 -34 0
32 -22 -33 0
33 -6 -13 0
33 6 13 0
34 -35 -13 0
34 35 13 0
36 -14 -39 0
36 -37 -14 0
36 37 -39 0
37 -38 -30 0
37 38 30 0
39 -40 -41 0
39 -41 -116 0
39 40 -116 0
4 -5 -6 0
4 5 6 0
40 -38 -13 0
40 38 13 0
41 -14 -115 0
41 -42 -14 0
41 42 -115 0
42 -21 -43 0
42 -43 -72 0
42 21 -72 0
43 -29 -30 0
43 -30 -44 0
43 29 -44 0
44 -32 -45 0
44 -45 -72 0
44 32 -72 0
45 -46 -48 0
45 -48 -72 0
45 46 -72 0
46 -47 -13 0
46 47 13 0
48 -49 -72 0
48 -72 -77 0
48 49 -77 0
49 -50 -70 0
50 -51 -68 0
51 -52 -66 0
52 -53 -64 0
53 -54 -62 0
54 -55 -60 0
55 -56 -58 0
56 -57 -30 0
56 57 30 0
58 -59 -30 0
58 59 30 0
60 -61 -30 0
60 61 30 0
62 -63 -30 0
62 63 30 0
64 -65 -30 0
64 65 30 0
66 -67 -30 0
66 67 30 0
68 -69 -30 0
68 69 30 0
7 8 0
70 -71 -30 0
70 71 30 0
72 -73 -70 0
73 -74 -68 0
74 -75 -66 0
75 -53 -76 0
76 -65 -13 0
76 65 13 0
77 -78 -111 0
78 -79 -107 0
79 -80 -103 0
8 -9 -10 0
8 9 10 0
80 -81 -99 0
81 -82 -95 0
82 -83 -91 0
83 -84 -87 0
84 -85 -30 0
84 85 30 0
85 -30 86 0
85 -86 30 0
86 -13 57 0
86 -57 13 0
87 -88 -30 0
87 88 30 0
88 -89 90 0
88 -90 89 0
89 -30 59 0
89 -59 30 0
90 -30 0
90 -57 0
91 -92 -30 0
91 92 30 0
92 -93 94 0
92 -94 93 0
93 -30 61 0
93 -61 30 0
94 -59 -90 0
95 -96 -30 0
95 96 30 0
96 -97 98 0
96 -98 97 0
97 -30 63 0
97 -63 30 0
98 -61 -94 0
99 -100 -13 0
99 100 13 0
